Version identifier: 22.1.1.0 | 2022-11-28 | 9160aff4d
CPXPARAM_ClockType                               1
CPXPARAM_Read_DataCheck                          1
CPXPARAM_Threads                                 1
CPXPARAM_TimeLimit                               7200
CPXPARAM_MIP_Tolerances_AbsMIPGap                0
CPXPARAM_MIP_Tolerances_MIPGap                   0
CPXPARAM_MIP_Tolerances_Integrality              0
Tried aggregator 4 times.
MIP Presolve eliminated 462563 rows and 12937 columns.
MIP Presolve modified 520 coefficients.
Aggregator did 4452 substitutions.
Reduced MIP has 16961 rows, 12986 columns, and 79411 nonzeros.
Reduced MIP has 12986 binaries, 0 generals, 0 SOSs, and 0 indicators.
Presolve time = 0.88 sec. (588.27 ticks)
Probing time = 0.04 sec. (11.87 ticks)
Tried aggregator 1 time.
Detecting symmetries...
MIP Presolve eliminated 13 rows and 0 columns.
MIP Presolve modified 168 coefficients.
Reduced MIP has 16948 rows, 12986 columns, and 79146 nonzeros.
Reduced MIP has 12986 binaries, 0 generals, 0 SOSs, and 0 indicators.
Presolve time = 0.08 sec. (56.65 ticks)
Probing time = 0.03 sec. (11.72 ticks)
Clique table members: 46110.
MIP emphasis: balance optimality and feasibility.
MIP search method: dynamic search.
Parallel mode: none, using 1 thread.
Root relaxation solution time = 42.64 sec. (29267.73 ticks)

        Nodes                                         Cuts/
   Node  Left     Objective  IInf  Best Integer    Best Bound    ItCnt     Gap

      0     0      868.0000  2919                    868.0000    47543         
      0     0      868.0000  2657                ZeroHalf: 12    83984         
      0     0      868.0000  2843                    Cuts: 34   129343         
      0     0      868.0000  2855                    Cuts: 39   172192         
Heuristic still looking.
Heuristic still looking.
*     0+    0                            0.0000      868.0000              --- 
Detecting symmetries...
      0     2      868.0000  2478        0.0000      868.0000   172192     --- 
Elapsed time = 356.32 sec. (255026.84 ticks, tree = 0.01 MB, solutions = 1)
      1     3      868.0000  3329        0.0000      868.0000   412751     --- 
      2     4      868.0000  2822        0.0000      868.0000   454798     --- 
      3     5      868.0000  3496        0.0000      868.0000   557350     --- 
      4     6      868.0000  2998        0.0000      868.0000   603342     --- 
      5     7      868.0000  2851        0.0000      868.0000   654223     --- 
      6     8      868.0000  3231        0.0000      868.0000   712148     --- 
      7     9      867.5000  2851        0.0000      868.0000   712154     --- 
      8    10      868.0000  3049        0.0000      868.0000   757587     --- 
      9    11      868.0000  3242        0.0000      868.0000   807595     --- 
     10    12      868.0000  3187        0.0000      868.0000   809208     --- 
Elapsed time = 1038.22 sec. (766022.80 ticks, tree = 0.07 MB, solutions = 1)
     11    13      868.0000  3332        0.0000      868.0000   857153     --- 
     12    14      868.0000  3255        0.0000      868.0000   904464     --- 
     13    15      868.0000  3449        0.0000      868.0000   910885     --- 
     14    16      868.0000  4025        0.0000      868.0000   925312     --- 
     15    17      867.0000  3536        0.0000      868.0000   931521     --- 
     16    18      868.0000  3448        0.0000      868.0000   932578     --- 
     17    19      868.0000  3611        0.0000      868.0000   937285     --- 
     18    20      868.0000  3493        0.0000      868.0000   940384     --- 
     20    22      868.0000  3408        0.0000      868.0000   942262     --- 
     22    24      868.0000  3670        0.0000      868.0000   952074     --- 
Elapsed time = 1180.88 sec. (877682.27 ticks, tree = 0.15 MB, solutions = 1)
     23    25      868.0000  3203        0.0000      868.0000  1005687     --- 
     24    26      868.0000  3279        0.0000      868.0000  1006449     --- 
     25    27      868.0000  3423        0.0000      868.0000  1017335     --- 
     27    29      868.0000  3330        0.0000      868.0000  1020764     --- 
     29    31      844.0000  3273        0.0000      868.0000  1026385     --- 
     30    32      868.0000  3521        0.0000      868.0000  1030602     --- 
     31    33      836.0000  3263        0.0000      868.0000  1033509     --- 
     32    34      868.0000  4149        0.0000      868.0000  1048358     --- 
     33    35      860.0000  3104        0.0000      868.0000  1053460     --- 
     34    36      868.0000  3905        0.0000      868.0000  1055361     --- 
Elapsed time = 1308.56 sec. (974442.33 ticks, tree = 0.46 MB, solutions = 1)
     35    37      868.0000  3814        0.0000      868.0000  1066466     --- 
     37    39      868.0000  3617        0.0000      868.0000  1069114     --- 
     39    41      868.0000  3496        0.0000      868.0000  1071075     --- 
     40    42      868.0000  3555        0.0000      868.0000  1072919     --- 
     41    43      868.0000  3527        0.0000      868.0000  1078823     --- 
     43    45      868.0000  3385        0.0000      868.0000  1084454     --- 
     44    46      868.0000  3087        0.0000      868.0000  1118854     --- 
     45    47      868.0000  3114        0.0000      868.0000  1155468     --- 
     46    48      868.0000  3213        0.0000      868.0000  1157590     --- 
     47    49      868.0000  3029        0.0000      868.0000  1194634     --- 
Elapsed time = 1464.06 sec. (1088493.11 ticks, tree = 0.55 MB, solutions = 1)
     48    50      868.0000  3108        0.0000      868.0000  1197804     --- 
     50    52      868.0000  3272        0.0000      868.0000  1200462     --- 
     51    53      868.0000  3211        0.0000      868.0000  1202880     --- 
     53    55      868.0000  3284        0.0000      868.0000  1209665     --- 
     54    56      868.0000  3279        0.0000      868.0000  1210225     --- 
     56    58      868.0000  3370        0.0000      868.0000  1211836     --- 
     57    59      868.0000  3357        0.0000      868.0000  1214447     --- 
     60    62      868.0000  3288        0.0000      868.0000  1217080     --- 
     62    64      868.0000  3261        0.0000      868.0000  1218662     --- 
     64    66      868.0000  3162        0.0000      868.0000  1222184     --- 
Elapsed time = 1508.36 sec. (1122069.90 ticks, tree = 0.78 MB, solutions = 1)
     66    68      868.0000  3159        0.0000      868.0000  1225335     --- 
     67    69      866.9967  3236        0.0000      868.0000  1227224     --- 
     68    70      864.0000  3134        0.0000      868.0000  1230030     --- 
     72    74      866.5000  3162        0.0000      868.0000  1231991     --- 
     74    76      858.0000  3139        0.0000      868.0000  1240515     --- 
     77    75    infeasible              0.0000      868.0000  1271761     --- 
     79    75      868.0000  2927        0.0000      868.0000  1347507     --- 
     81    77      868.0000  3199        0.0000      868.0000  1392298     --- 
     82    78      868.0000  2994        0.0000      868.0000  1392980     --- 
     84    78    infeasible              0.0000      868.0000  1402347     --- 
Elapsed time = 1724.39 sec. (1282054.98 ticks, tree = 0.86 MB, solutions = 1)
     85    79      868.0000  3273        0.0000      868.0000  1406633     --- 
     86    80      868.0000  3189        0.0000      868.0000  1455515     --- 
     87    81      868.0000  3439        0.0000      868.0000  1527532     --- 
     88    82      868.0000  3239        0.0000      868.0000  1568430     --- 
     90    84      868.0000  3241        0.0000      868.0000  1571277     --- 
     91    85      868.0000  3170        0.0000      868.0000  1610885     --- 
     93    87      868.0000  3131        0.0000      868.0000  1613852     --- 
     94    88      868.0000  3230        0.0000      868.0000  1647450     --- 
     96    90      868.0000  3043        0.0000      868.0000  1677716     --- 
     97    91      868.0000  3069        0.0000      868.0000  1708849     --- 
Elapsed time = 2045.51 sec. (1511140.87 ticks, tree = 0.95 MB, solutions = 1)
     98    92      868.0000  2830        0.0000      868.0000  1746911     --- 
     99    93      868.0000  2928        0.0000      868.0000  1782241     --- 
    100    94      867.9865  2919        0.0000      868.0000  1846742     --- 
    102    96      868.0000  2930        0.0000      868.0000  1849001     --- 
    103    97      868.0000  3084        0.0000      868.0000  1852844     --- 
    105    99      867.9826  3335        0.0000      868.0000  1863832     --- 
    106   100      867.5000  3342        0.0000      868.0000  1874560     --- 
    107   101      867.9826  3036        0.0000      868.0000  1902356     --- 
    108   102      867.9826  3182        0.0000      868.0000  1904664     --- 
    109   103      867.9826  3080        0.0000      868.0000  1906852     --- 
Elapsed time = 2233.31 sec. (1643033.69 ticks, tree = 1.03 MB, solutions = 1)
    110   104      867.9826  3050        0.0000      868.0000  1908106     --- 
    112   106      867.9826  3184        0.0000      868.0000  1913605     --- 
    113   107      867.9826  3157        0.0000      868.0000  1916534     --- 
    114   108      867.9826  3109        0.0000      868.0000  1921990     --- 
    115   109      867.9826  3619        0.0000      868.0000  1928537     --- 
    116   110      867.9826  2981        0.0000      868.0000  1951993     --- 
    117   111      867.9826  3079        0.0000      868.0000  1953504     --- 
    118   112      811.9815  2735        0.0000      868.0000  1957378     --- 
    119   113      867.9826  2978        0.0000      868.0000  1958263     --- 
    121   115      867.9826  3131        0.0000      868.0000  1960747     --- 
Elapsed time = 2295.25 sec. (1687613.97 ticks, tree = 1.23 MB, solutions = 1)
    122   116      867.9826  3116        0.0000      868.0000  1963497     --- 
    123   117      867.9826  2965        0.0000      868.0000  1982730     --- 
    124   118      867.9811  2785        0.0000      868.0000  2008687     --- 
    126   120      867.6522  2702        0.0000      868.0000  2015678     --- 
    128   122      803.9810  2682        0.0000      868.0000  2024907     --- 
    129   121    infeasible              0.0000      868.0000  2030529     --- 
    130   122      803.9803  2340        0.0000      868.0000  2041460     --- 
    131   123      803.9312  2417        0.0000      868.0000  2068359     --- 
    132   124      803.4886  2251        0.0000      868.0000  2081796     --- 
    133   125      803.0000  2114        0.0000      868.0000  2091824     --- 
Elapsed time = 2440.81 sec. (1785404.70 ticks, tree = 1.30 MB, solutions = 1)
    140   132      800.5000  1780        0.0000      868.0000  2094899     --- 
    152   140      868.0000  2918        0.0000      868.0000  2130443     --- 
    158   146      868.0000  3204        0.0000      868.0000  2136703     --- 
    161   149      863.7500  2728        0.0000      868.0000  2197145     --- 
    162   148    infeasible              0.0000      868.0000  2201018     --- 
    163   149      847.0000  2583        0.0000      868.0000  2224055     --- 
    164   150      842.5000  2506        0.0000      868.0000  2243849     --- 
    165   151      835.0000  2382        0.0000      868.0000  2263553     --- 
    168   150      868.0000  3016        0.0000      868.0000  2298009     --- 
    173   155      868.0000  2963        0.0000      868.0000  2304158     --- 
Elapsed time = 2728.45 sec. (1986795.01 ticks, tree = 1.51 MB, solutions = 1)
    177   155    infeasible              0.0000      868.0000  2314707     --- 
    178   154    infeasible              0.0000      868.0000  2418961     --- 
    179   153    infeasible              0.0000      868.0000  2434898     --- 
    181   151    infeasible              0.0000      868.0000  2563183     --- 
    182   150    infeasible              0.0000      868.0000  2643126     --- 
    183   149    infeasible              0.0000      868.0000  2765209     --- 
    184   150      868.0000  3338        0.0000      868.0000  2813398     --- 
    185   151      868.0000  3524        0.0000      868.0000  2864494     --- 
    186   152      868.0000  3485        0.0000      868.0000  2871965     --- 
    191   157      868.0000  3041        0.0000      868.0000  2938788     --- 
Elapsed time = 3434.09 sec. (2492621.32 ticks, tree = 1.52 MB, solutions = 1)
    192   158      868.0000  3233        0.0000      868.0000  2982460     --- 
    196   162      868.0000  3278        0.0000      868.0000  2987414     --- 
    203   169      868.0000  3259        0.0000      868.0000  2992818     --- 
    208   174      868.0000  3494        0.0000      868.0000  2998181     --- 
    216   182      868.0000  3520        0.0000      868.0000  3002834     --- 
    221   187      868.0000  3360        0.0000      868.0000  3007603     --- 
    229   195      868.0000  3333        0.0000      868.0000  3012397     --- 
    238   204      868.0000  3359        0.0000      868.0000  3017359     --- 
    240   206      868.0000  3342        0.0000      868.0000  3018669     --- 
    251   217      868.0000  3372        0.0000      868.0000  3023797     --- 
Elapsed time = 3545.20 sec. (2576050.51 ticks, tree = 1.93 MB, solutions = 1)
    264   230      868.0000  3354        0.0000      868.0000  3029173     --- 
    274   240      868.0000  3465        0.0000      868.0000  3033803     --- 
    280   246      868.0000  3334        0.0000      868.0000  3036966     --- 
    287   253      868.0000  3346        0.0000      868.0000  3039948     --- 
    291   257      868.0000  3359        0.0000      868.0000  3041766     --- 
    292   258      868.0000  3064        0.0000      868.0000  3148753     --- 
    300   266      868.0000  3160        0.0000      868.0000  3153841     --- 
    306   272      868.0000  3260        0.0000      868.0000  3158791     --- 
    312   278      868.0000  3296        0.0000      868.0000  3164436     --- 
    319   285      868.0000  3144        0.0000      868.0000  3238493     --- 
Elapsed time = 3805.51 sec. (2767864.70 ticks, tree = 2.75 MB, solutions = 1)
    326   292      868.0000  3162        0.0000      868.0000  3243730     --- 
    331   297      868.0000  3198        0.0000      868.0000  3247592     --- 
    337   303      868.0000  3307        0.0000      868.0000  3252906     --- 
    341   307      868.0000  2944        0.0000      868.0000  3313758     --- 
    347   313      868.0000  3099        0.0000      868.0000  3319620     --- 
    352   318      868.0000  3065        0.0000      868.0000  3323097     --- 
    358   324      868.0000  3446        0.0000      868.0000  3328575     --- 
    362   328      868.0000  2809        0.0000      868.0000  3417508     --- 
    366   332      868.0000  3258        0.0000      868.0000  3423464     --- 
    371   337      868.0000  3362        0.0000      868.0000  3429045     --- 
Elapsed time = 4007.26 sec. (2912839.22 ticks, tree = 3.45 MB, solutions = 1)
    377   343      868.0000  3328        0.0000      868.0000  3435892     --- 
    381   347      868.0000  3371        0.0000      868.0000  3442933     --- 
    386   352      868.0000  3345        0.0000      868.0000  3449321     --- 
    392   358      868.0000  3231        0.0000      868.0000  3456167     --- 
    397   363      867.9991  3269        0.0000      868.0000  3462241     --- 
    400   366      867.9989  3227        0.0000      868.0000  3465192     --- 
    406   372      867.9988  3307        0.0000      868.0000  3472378     --- 
    412   378      867.9231  3205        0.0000      868.0000  3478156     --- 
    420   386      867.9146  3215        0.0000      868.0000  3484242     --- 
    424   390      867.9107  2825        0.0000      868.0000  3541814     --- 
Elapsed time = 4191.30 sec. (3049819.47 ticks, tree = 3.81 MB, solutions = 1)
    429   395      867.9093  3111        0.0000      868.0000  3547678     --- 
    437   403      867.9093  3116        0.0000      868.0000  3553455     --- 
    445   411      864.6667  3051        0.0000      868.0000  3559788     --- 
    455   421      863.9785  2818        0.0000      868.0000  3599708     --- 
    466   432      862.0000  3040        0.0000      868.0000  3604923     --- 
    472   438      862.0000  3038        0.0000      868.0000  3608007     --- 
    479   445      862.0000  3045        0.0000      868.0000  3610648     --- 
    480   446      862.0000  3059        0.0000      868.0000  3611011     --- 
    485   451      849.9916  3008        0.0000      868.0000  3677310     --- 
    486   452      868.0000  2888        0.0000      868.0000  3758825     --- 
Elapsed time = 4646.34 sec. (3384043.57 ticks, tree = 4.47 MB, solutions = 1)
    487   453      868.0000  3021        0.0000      868.0000  3801860     --- 

Performing restart 1

Repeating presolve.
Tried aggregator 1 time.
Reduced MIP has 16948 rows, 12986 columns, and 79146 nonzeros.
Reduced MIP has 12986 binaries, 0 generals, 0 SOSs, and 0 indicators.
Presolve time = 0.05 sec. (37.63 ticks)
Tried aggregator 1 time.
Reduced MIP has 16948 rows, 12986 columns, and 79146 nonzeros.
Reduced MIP has 12986 binaries, 0 generals, 0 SOSs, and 0 indicators.
Presolve time = 0.08 sec. (51.82 ticks)
Represolve time = 0.76 sec. (302.22 ticks)
    488     0      868.0000  2730        0.0000      Cuts: 24  3897403     --- 
    488     0      868.0000  2634        0.0000     Cuts: 163  3942142     --- 
    488     0      868.0000  2759        0.0000      Cuts: 21  3983110     --- 
    488     0      868.0000  2859        0.0000      Cuts: 20  4030538     --- 
    488     0      868.0000  2998        0.0000      Cuts: 56  4073526     --- 
    488     2      868.0000  2280        0.0000      868.0000  4073526     --- 
    489     3      868.0000  3576        0.0000      868.0000  4317736     --- 
    490     4      868.0000  4064        0.0000      868.0000  4365801     --- 
    491     5      836.0000  3851        0.0000      868.0000  4469080     --- 
    492     6      868.0000  3712        0.0000      868.0000  4522456     --- 
    493     7      868.0000  3932        0.0000      868.0000  4579760     --- 
    494     8      868.0000  3690        0.0000      868.0000  4637342     --- 
    495     9      868.0000  3945        0.0000      868.0000  4728906     --- 
    496    10      868.0000  3801        0.0000      868.0000  4779307     --- 
Elapsed time = 6246.40 sec. (4572276.51 ticks, tree = 0.06 MB, solutions = 1)
    497    11      868.0000  4028        0.0000      868.0000  4831639     --- 
    499    13      868.0000  3833        0.0000      868.0000  4882139     --- 
    500    14      868.0000  3758        0.0000      868.0000  4929630     --- 
    501    15      868.0000  3679        0.0000      868.0000  4976560     --- 
    502    16      780.0000  3520        0.0000      868.0000  5013918     --- 
    504    18      868.0000  3894        0.0000      868.0000  5061529     --- 
    505    19      868.0000  3641        0.0000      868.0000  5125399     --- 
    506    20      868.0000  3555        0.0000      868.0000  5185257     --- 
    507    21      868.0000  3690        0.0000      868.0000  5236387     --- 
    509    23      864.0000  3167        0.0000      868.0000  5279002     --- 
Elapsed time = 6837.99 sec. (5017603.09 ticks, tree = 0.14 MB, solutions = 1)
    510    24      868.0000  3387        0.0000      868.0000  5329474     --- 
    511    25      868.0000  3307        0.0000      868.0000  5381899     --- 
    512    26      868.0000  3465        0.0000      868.0000  5417982     --- 
    514    28      868.0000  3121        0.0000      868.0000  5456987     --- 
    515    27    infeasible              0.0000      868.0000  5571977     --- 
    517    29      868.0000  3251        0.0000      868.0000  5613908     --- 

Clique cuts applied:  11
Zero-half cuts applied:  17

Root node processing (before b&c):
  Real time             =  355.68 sec. (254758.06 ticks)
Sequential b&c:
  Real time             = 6844.34 sec. (5020203.77 ticks)
                          ------------
Total (root+branch&cut) = 7200.02 sec. (5274961.83 ticks)
Solution is feasible.

---------------------
@@@ MIP_time_limit_feasible
>>> Benchmark mc2024_track1_153.cnf k 5 OPT 0 TimeCost 7501.00029706955 TimeSolve 7227.33287024498 TimeRead 0.16584372520446777 TimeTrans 273.50158309936523
